CMD:
./solvers/bin/cadical --plain --no-reduce -t 1600 ./data/cnfs//qspiflash_dualflexpress_divfive-p058/qspiflash_dualflexpress_divfive-p058.58.cnf

c --- [ banner ] -------------------------------------------------------------
c 
c CaDiCaL SAT Solver
c Copyright (c) 2016-2024
c A. Biere, M. Fleury, N. Froleyks, K. Fazekas, F. Pollitt, T. Faller
c JKU Linz, University of Freiburg, TU Wien
c 
c Version 2.1.3 5296d3d2a9bf48c154ab2acb5e44625776d821bf
c g++ (Gentoo 12.3.1_p20230526 p2) 12.3.1 20230526 -Wall -Wextra -O3 -DNDEBUG
c Sat Aug 9 07:26:21 PDT 2025 Linux cedar2.int.cedar.computecanada.ca 5.14.0-362.24.2.el9_3.x86_64 x86_64
c 
c --- [ limit ] --------------------------------------------------------------
c 
c setting time limit to 1600 seconds real time (due to '-t 1600')
c 
c --- [ parsing input ] ------------------------------------------------------
c 
c reading DIMACS file from './data/cnfs//qspiflash_dualflexpress_divfive-p058/qspiflash_dualflexpress_divfive-p058.58.cnf'
c opening file to read './data/cnfs//qspiflash_dualflexpress_divfive-p058/qspiflash_dualflexpress_divfive-p058.58.cnf'
c found 'p cnf 174976 510630' header
c parsed 510630 clauses in 0.08 seconds process time
c 
c --- [ options ] ------------------------------------------------------------
c 
c   --compact=false                (different from default 'true')
c   --decompose=false              (different from default 'true')
c   --deduplicate=false            (different from default 'true')
c   --elim=false                   (different from default 'true')
c   --probe=false                  (different from default 'true')
c   --reduce=false                 (different from default 'true')
c   --subsume=false                (different from default 'true')
c   --ternary=false                (different from default 'true')
c   --transred=false               (different from default 'true')
c   --vivify=false                 (different from default 'true')
c 
c --- [ solving ] ------------------------------------------------------------
c 
c time measured in process time since initialization
c 
c  seconds  reductions  redundant  irredundant
c         MB    restarts       trail       variables
c          level   conflicts       glue          remaining
c 
c *  0.08 80  0 0   0    0    0  0% 0 489631 161137 92%
c {  0.12 83  0 0   0    0    0  0% 0 489631 161137 92%
c i  0.13 83 14 0   0    9    8 15% 1 489631 161114 92%
c i  0.15 83 27 0   0   47   45 20% 2 489631 160672 92%
c i  0.15 83 29 0   0   52   48 20% 2 489631 160658 92%
c i  0.15 83 31 0   0   65   56 19% 2 489631 160644 92%
c i  0.15 84 32 0   0   76   63 19% 2 489631 160630 92%
c i  0.15 84 33 0   0   96   79 18% 2 489631 160618 92%
c i  0.18 84 36 0   6  173  150 17% 2 489631 160507 92%
c i  0.18 84 34 0   6  193  166 17% 2 489631 160506 92%
c i  0.18 84 31 0  17  244  205 15% 2 489631 160502 92%
c i  0.20 84 31 0  27  280  236 15% 2 489631 160501 92%
c i  0.21 84 35 0  29  300  253 16% 2 489631 160500 92%
c i  0.22 84 46 0  32  372  316 19% 2 489631 160499 92%
c i  0.23 84 45 0  32  394  333 19% 2 489631 160498 92%
c i  0.26 84 41 0  40  587  509 18% 2 489631 160486 92%
c i  0.35 84 38 0  87  897  795 18% 3 489631 159928 91%
c }  0.37 84 40 0  98 1004  888 18% 3 489631 159928 91%
c [  0.37 84  0 0  98 1004  888  0% 0 489631 159928 91%
c O  0.40 84 1315 0  98 1005  889 93% 3 489631 159928 91%
c 
c  seconds    reductions  redundant  irredundant
c         MB      restarts       trail       variables
c           level    conflicts       glue          remaining
c 
c i  0.41 84 1233 0  98 1189 1050 87% 4 489631 159924 91%
c i  0.56 85 909 0  99 2357 2115 66% 7 489631 159923 91%
c i  0.58 85 893 0  99 2381 2138 65% 7 489631 159911 91%
c i  0.62 85 811 0  99 2533 2270 61% 7 489631 159869 91%
c ]  0.69 85 653 0  99 3004 2670 53% 8 489631 159869 91%
c {  0.69 85 40 0  99 3004 2670 18% 3 489631 159869 91%
c F  0.69 85 39 0 100 3006 2672 18% 3 489631 159869 91%
c i  0.70 85 39 0 104 3027 2691 18% 3 489631 159868 91%
c i  0.70 85 40 0 104 3047 2709 18% 3 489631 159862 91%
c i  0.70 85 40 0 104 3054 2715 18% 3 489631 159835 91%
c i  0.73 85 43 0 122 3212 2851 19% 3 489631 159785 91%
c i  0.75 85 42 0 135 3274 2899 19% 3 489631 159775 91%
c i  0.82 85 42 0 167 3411 3021 19% 3 489631 159771 91%
c i  0.82 85 42 0 174 3481 3085 19% 3 489631 159767 91%
c i  0.83 85 41 0 182 3509 3110 18% 3 489631 159766 91%
c i  0.84 85 40 0 216 3629 3222 18% 3 489631 159762 91%
c i  0.86 85 39 0 237 3738 3324 18% 3 489631 159761 91%
c i  0.86 85 38 0 243 3764 3348 18% 4 489631 159757 91%
c i  0.89 85 37 0 292 3985 3543 17% 4 489631 159753 91%
c i  0.92 85 36 0 326 4132 3664 17% 4 489631 159749 91%
c 
c  seconds  reductions  redundant  irredundant
c         MB    restarts       trail       variables
c          level   conflicts       glue          remaining
c 
c i  0.93 85 36 0 343 4198 3728 17% 4 489631 159748 91%
c i  0.94 85 35 0 355 4241 3769 17% 4 489631 159744 91%
c i  0.96 85 41 0 375 4479 3984 17% 4 489631 159733 91%
c i  1.04 85 42 0 422 4828 4291 17% 4 489631 159729 91%
c i  1.08 85 40 0 463 5115 4541 17% 4 489631 159725 91%
c i  1.11 85 40 0 490 5297 4703 17% 4 489631 159724 91%
c i  1.13 85 41 0 490 5398 4791 17% 4 489631 159723 91%
c i  1.14 85 41 0 494 5535 4903 18% 4 489631 159722 91%
c #  1.22 85 40 0 518 6008 5325 18% 4 489631 159722 91%
c i  1.33 86 37 0 582 6574 5817 18% 4 489631 159718 91%
c i  1.38 86 36 0 609 6825 6018 17% 4 489631 159561 91%
c i  1.39 86 36 0 612 6945 6118 18% 4 489631 159557 91%
c }  1.40 86 36 0 612 7006 6172 18% 4 489631 159557 91%
c [  1.40 86 653 0 612 7006 6172 53% 8 489631 159557 91%
c i  1.58 86 393 0 613 8443 7410 38% 9 489631 159553 91%
c i  1.59 86 385 0 613 8520 7483 38% 9 489631 159542 91%
c i  1.59 86 384 0 613 8530 7490 38% 9 489631 159531 91%
c i  1.61 86 365 0 613 8733 7663 37% 9 489631 159527 91%
c i  1.61 86 365 0 613 8740 7669 37% 9 489631 159523 91%
c i  1.61 86 364 0 613 8749 7677 37% 9 489631 159519 91%
c 
c  seconds   reductions  redundant  irredundant
c         MB     restarts       trail       variables
c           level   conflicts       glue          remaining
c 
c i  1.62 86 360 0 613 8800 7725 36% 9 489631 159504 91%
c I  1.88 86 280 0 614 10009 8733 32% 10 489631 159504 91%
c i  2.02 86 255 0 615 10530 9136 30% 10 489631 159503 91%
c ]  2.25 87 218 0 616 11557 9968 28% 10 489631 150934 86%
c 0  2.25 87 218 0 616 11557 9968 28% 10 489631 150934 86%
c 
c --- [ result ] -------------------------------------------------------------
c 
s UNSATISFIABLE
c 
c --- [ run-time profiling ] -------------------------------------------------
c 
c process time taken by individual solving procedures
c (percentage relative to process time for solving)
c 
c         2.17   99.99% search
c         1.17   53.99% stable
c         0.96   44.02% unstable
c         0.08    3.66% parse
c         0.04    1.99% lucky
c         0.00    0.00% simplify
c   =================================
c         2.17   96.45% solve
c 
c last line shows process time for solving
c (percentage relative to total process time)
c 
c --- [ statistics ] ---------------------------------------------------------
c 
c chronological:              4772        41.29 %  of conflicts
c conflicts:                 11557      5317.73    per second
c decisions:                 38311     17628.07    per second
c fixed:                     24008        13.72 %  of all variables
c learned:                   10973        94.95 %  per conflict
c learned_lits:             299144       100.00 %  learned literals
c minimized:                     0         0.00 %  learned literals
c shrunken:                  56736        18.97 %  learned literals
c minishrunken:              51373        17.17 %  learned literals
c otfs:                        122         1.06 %  of conflict
c propagations:           32172794        14.80 M  per second
c rephased:                      4      2889.25    interval
c restarts:                    616        18.76    interval
c stabilizing:                   2        56.68 %  of conflicts
c subsumed:                    954         0.19 %  of all clauses
c strengthened:                121         0.02 %  of all clauses
c 
c seconds are measured in process time for solving
c 
c --- [ resources ] ----------------------------------------------------------
c 
c total process time since initialization:         2.25    seconds
c total real time since initialization:            2.27    seconds
c maximum resident set size of process:           85.48    MB
c 
c --- [ shutting down ] ------------------------------------------------------
c 
c exit 20
